c Sudoku solution
p cnf 729 0
132 0
161 0
223 0
264 0
295 0
329 0
367 0
381 0
392 0
425 0
449 0
453 0
498 0
547 0
566 0
462 0
618 0
558 0
665 0
696 0
771 0
591 0
786 0
885 0
575 0
919 0
941 0
644 0
651 0
821 0
955 0
356 0
159 0
252 0
248 0
846 0
742 0
993 0
968 0
878 0
812 0
188 0
338 0
728 0
735 0
514 0
522 0
627 0
713 0
769 0
863 0
899 0
315 0
124 0
197 0
374 0
173 0
276 0
289 0
145 0
343 0
116 0
411 0
436 0
217 0
231 0
926 0
477 0
484 0
972 0
679 0
682 0
583 0
539 0
633 0
987 0
794 0
757 0
854 0
837 0
934 0
